sing20160817.12
TTAA 67121 48698
99005 28440 29002 00072 29445 18510 92763 23004 18512
85498 18401 21015 70144 10412 35004 50588 04558 08504
40760 14958 21510 30971 30356 10028 25098 39537 07551
20247 52356 07568 15428 65559 07568 10663 76562 11522
88107 82156 08065
77169 07080 41219=
TTCC 67127 48698
70869 74565 11021 50067 ///// /////
88999
77999=
TTDD 6712/ 48698
11892 79360 22849 73764 33717 73765 44640 77564 55624
73767 66529 66974
21212 11978 12517 22955 10519 33888 09518 44854 03514
55831 01512 66815 01514 77767 07019 88686 12020 99648
11020 11616 07531 22578 10033 33555 09041 44529 06527=
